
Gurobi 11.0.0 (linux64) logging started Thu Sep 19 17:57:41 2024

Set parameter LogFile to value "/lustre1/scratch/348/vsc34888/JointResearch/05.Models/06.Benchmarking/E.Representative_days_based_on_Line_Benefits_OptModel/IEEE118_mod1_ByStages_nc80/openStarNet_IEEE118_mod1_ByStages_nc80.log"
Set parameter Method to value 2
Set parameter MIPFocus to value 1
Set parameter Presolve to value 2
Set parameter RINS to value 100
Set parameter MIPGap to value 0.01
Set parameter Threads to value 36
Set parameter TimeLimit to value 259200
Set parameter IterationLimit to value 760000000
Gurobi Optimizer version 11.0.0 build v11.0.0rc2 (linux64 - "Rocky Linux 8.9 (Green Obsidian)")

CPU model: Intel(R) Xeon(R) Gold 6240 CPU @ 2.60GHz, instruction set [SSE2|AVX|AVX2|AVX512]
Thread count: 36 physical cores, 36 logical processors, using up to 36 threads

Optimize a model with 113683 rows, 84041 columns and 292818 nonzeros
Model fingerprint: 0x165c3a21
Variable types: 84007 continuous, 34 integer (34 binary)
Coefficient statistics:
  Matrix range     [3e-04, 9e+03]
  Objective range  [1e+00, 1e+00]
  Bounds range     [1e-04, 3e+00]
  RHS range        [2e-04, 3e+00]
Presolve removed 76848 rows and 38638 columns
Presolve time: 0.42s
Presolved: 36835 rows, 45403 columns, 134733 nonzeros
Variable types: 45369 continuous, 34 integer (34 binary)
Root relaxation presolved: 36835 rows, 45403 columns, 134733 nonzeros

Root barrier log...

Ordering time: 0.02s

Barrier statistics:
 Dense cols : 34
 AA' NZ     : 1.665e+05
 Factor NZ  : 6.466e+05 (roughly 40 MB of memory)
 Factor Ops : 1.355e+07 (less than 1 second per iteration)
 Threads    : 35

                  Objective                Residual
Iter       Primal          Dual         Primal    Dual     Compl     Time
   0   8.89539404e+06 -2.85222717e+09  1.55e+01 5.81e+03  1.15e+05     1s
   1   2.10120275e+06 -1.09775517e+09  3.39e+00 6.07e-08  2.37e+04     1s
   2   5.04241522e+05 -5.62173150e+08  5.75e-01 5.41e-08  6.95e+03     1s
   3   2.99356789e+05 -1.17203280e+08  1.54e-01 1.04e-08  1.29e+03     1s
   4   2.01454486e+05 -1.22470616e+07  1.20e-02 1.49e-09  1.18e+02     1s
   5   1.07247837e+05 -5.08719782e+06  9.03e-04 5.96e-10  4.78e+01     1s
   6   6.92741605e+04 -3.65025819e+06  3.45e-04 4.21e-10  3.42e+01     1s
   7   4.24398940e+04 -6.39740351e+05  4.63e-05 5.23e-11  6.27e+00     1s
   8   2.33221691e+04 -1.74690022e+05  1.48e-05 2.91e-11  1.82e+00     1s
   9   1.08830820e+04 -6.07775272e+04  5.43e-06 7.28e-12  6.58e-01     1s
  10   5.57651074e+03 -1.71866201e+04  2.04e-06 1.46e-11  2.09e-01     1s
  11   2.79873594e+03 -7.41513188e+03  6.56e-07 1.46e-11  9.38e-02     1s
  12   2.11485734e+03 -3.37835438e+03  3.86e-07 7.28e-12  5.04e-02     1s
  13   1.57877032e+03 -1.27149727e+03  1.94e-07 7.28e-12  2.62e-02     1s
  14   1.41102073e+03 -5.48765793e+02  1.41e-07 1.46e-11  1.80e-02     1s
  15   1.20671831e+03 -1.60496298e+01  8.26e-08 1.46e-11  1.12e-02     1s
  16   1.08222033e+03  4.11888059e+02  4.92e-08 1.46e-11  6.16e-03     1s
  17   1.02310751e+03  6.59442294e+02  3.43e-08 1.46e-11  3.34e-03     1s
  18   9.71309660e+02  7.34194068e+02  2.20e-08 1.46e-11  2.18e-03     1s
  19   9.40611656e+02  7.71363363e+02  1.50e-08 1.46e-11  1.55e-03     1s
  20   9.22496469e+02  8.01201870e+02  1.09e-08 3.64e-12  1.11e-03     1s
  21   9.07189648e+02  8.20322788e+02  7.59e-09 7.28e-12  7.98e-04     1s
  22   8.98083083e+02  8.35509235e+02  5.60e-09 1.46e-11  5.75e-04     1s
  23   8.88958725e+02  8.54058068e+02  3.73e-09 7.28e-12  3.21e-04     1s
  24   8.81604598e+02  8.62373382e+02  2.23e-09 3.64e-12  1.77e-04     1s
  25   8.76778281e+02  8.65719717e+02  1.26e-09 7.28e-12  1.02e-04     1s
  26   8.72916828e+02  8.67967469e+02  5.05e-10 7.28e-12  4.55e-05     1s
  27   8.71887292e+02  8.68785754e+02  3.08e-10 1.46e-11  2.85e-05     1s
  28   8.70843730e+02  8.69667716e+02  1.09e-10 1.46e-11  1.08e-05     1s
  29   8.70462861e+02  8.69990735e+02  4.07e-11 1.46e-11  4.34e-06     1s
  30   8.70275381e+02  8.70121725e+02  1.39e-09 7.28e-12  1.41e-06     1s
  31   8.70231150e+02  8.70211378e+02  1.71e-09 7.28e-12  1.82e-07     1s
  32   8.70222986e+02  8.70218760e+02  4.51e-09 1.46e-11  3.88e-08     1s
  33   8.70221482e+02  8.70220291e+02  1.70e-09 1.46e-11  1.09e-08     1s
  34   8.70220661e+02  8.70220529e+02  6.34e-09 1.46e-11  1.22e-09     1s
  35   8.70220601e+02  8.70220600e+02  1.17e-09 1.46e-11  1.02e-11     1s

Barrier solved model in 35 iterations and 1.44 seconds (1.37 work units)
Optimal objective 8.70220601e+02


Root relaxation: objective 8.702206e+02, 3271 iterations, 1.35 seconds (1.04 work units)

    Nodes    |    Current Node    |     Objective Bounds      |     Work
 Expl Unexpl |  Obj  Depth IntInf | Incumbent    BestBd   Gap | It/Node Time

     0     0  870.22060    0   20          -  870.22060      -     -    2s
H    0     0                    6859.5782400  870.22060  87.3%     -    4s
H    0     0                    2418.1079326  870.22060  64.0%     -    7s
     0     0  884.39983    0   22 2418.10793  884.39983  63.4%     -   11s
H    0     0                    1943.0520192  884.39983  54.5%     -   12s
     0     0  885.77753    0   22 1943.05202  885.77753  54.4%     -   14s
     0     0  885.77753    0   21 1943.05202  885.77753  54.4%     -   14s
     0     0  885.77753    0   21 1943.05202  885.77753  54.4%     -   14s
     0     0  886.25456    0   20 1943.05202  886.25456  54.4%     -   15s
     0     0  886.25456    0   20 1943.05202  886.25456  54.4%     -   16s
     0     0  886.25456    0   20 1943.05202  886.25456  54.4%     -   16s
     0     0  896.97558    0   20 1943.05202  896.97558  53.8%     -   16s
     0     0  896.97558    0   20 1943.05202  896.97558  53.8%     -   17s
     0     0  896.97558    0   20 1943.05202  896.97558  53.8%     -   17s
     0     0  896.97558    0   20 1943.05202  896.97558  53.8%     -   19s
H    0     0                     964.5498688  896.97558  7.01%     -  194s
     0     2  896.97558    0   20  964.54987  896.97558  7.01%     -  195s
     3     6     cutoff    2       964.54987  902.34439  6.45%  4753  205s
     7    10  933.62867    3   18  964.54987  913.25743  5.32%  3238  214s
    13    16  960.20881    4   19  964.54987  917.95681  4.83%  3291  220s
    23    12     cutoff    5       964.54987  924.62503  4.14%  2751  229s
    39    14  932.11264    6   11  964.54987  926.22081  3.97%  2285  236s
    51    22  940.49809    7   11  964.54987  932.26466  3.35%  2341  242s
    65    24     cutoff    8       964.54987  940.50726  2.49%  2446  248s
    87    22  947.71413    9    9  964.54987  943.14683  2.22%  2441  254s
   111    20  950.45397   10   11  964.54987  945.61455  1.96%  2142  258s
   133    21     cutoff   11       964.54987  950.48292  1.46%  2021  262s

Cutting planes:
  Implied bound: 130
  MIR: 415

Explored 190 nodes (301965 simplex iterations) in 263.89 seconds (320.02 work units)
Thread count was 36 (of 36 available processors)

Solution count 4: 964.55 1943.05 2418.11 6859.58 

Optimal solution found (tolerance 1.00e-02)
Best objective 9.645498688448e+02, best bound 9.562687722643e+02, gap 0.8585%

Gurobi 11.0.0 (linux64) logging started Thu Sep 19 18:02:18 2024

Set parameter LogFile to value "/lustre1/scratch/348/vsc34888/JointResearch/05.Models/06.Benchmarking/E.Representative_days_based_on_Line_Benefits_OptModel/IEEE118_mod1_ByStages_nc80/openStarNet_IEEE118_mod1_ByStages_nc80.log"
Set parameter Method to value 2
Set parameter MIPFocus to value 1
Set parameter Presolve to value 2
Set parameter RINS to value 100
Set parameter MIPGap to value 0.01
Set parameter Threads to value 36
Set parameter TimeLimit to value 259200
Set parameter IterationLimit to value 760000000
Gurobi Optimizer version 11.0.0 build v11.0.0rc2 (linux64 - "Rocky Linux 8.9 (Green Obsidian)")

CPU model: Intel(R) Xeon(R) Gold 6240 CPU @ 2.60GHz, instruction set [SSE2|AVX|AVX2|AVX512]
Thread count: 36 physical cores, 36 logical processors, using up to 36 threads

Optimize a model with 113683 rows, 84007 columns and 281904 nonzeros
Model fingerprint: 0x954a2e9b
Coefficient statistics:
  Matrix range     [3e-04, 9e+03]
  Objective range  [1e+00, 1e+00]
  Bounds range     [1e-04, 3e+00]
  RHS range        [2e-04, 2e+02]
Presolve removed 84900 rows and 37073 columns
Presolve time: 0.15s
Presolved: 28783 rows, 47262 columns, 113785 nonzeros

Ordering time: 0.01s

Barrier statistics:
 AA' NZ     : 9.672e+04
 Factor NZ  : 3.840e+05 (roughly 34 MB of memory)
 Factor Ops : 5.637e+06 (less than 1 second per iteration)
 Threads    : 36

                  Objective                Residual
Iter       Primal          Dual         Primal    Dual     Compl     Time
   0   1.41172158e+07 -1.48449056e+09  9.17e+01 1.60e+02  5.67e+04     0s
   1   2.03861074e+06 -4.50289576e+08  1.21e+01 5.88e-12  8.60e+03     0s
   2   4.36949641e+05 -8.18364634e+07  1.77e+00 6.82e-12  1.19e+03     0s
   3   1.74598299e+05 -1.11821315e+07  3.10e-02 4.92e-12  1.13e+02     0s
   4   9.34249058e+04 -1.38199171e+06  1.88e-07 4.55e-12  1.43e+01     0s
   5   4.95684242e+04 -3.64647949e+05  6.28e-08 2.05e-12  4.01e+00     0s
   6   2.84485230e+04 -1.15324976e+05  2.54e-08 9.09e-13  1.39e+00     0s
   7   1.34320203e+04 -4.79662541e+04  9.38e-09 9.09e-13  5.94e-01     0s
   8   8.41684231e+03 -1.98176709e+04  5.14e-09 9.09e-13  2.73e-01     0s
   9   4.63936201e+03 -9.14019584e+03  2.35e-09 9.09e-13  1.33e-01     0s
  10   3.22730188e+03 -4.60543742e+03  1.38e-09 9.09e-13  7.58e-02     0s
  11   2.38770635e+03 -1.71670150e+03  8.28e-10 9.09e-13  3.97e-02     0s
  12   1.70849424e+03 -1.09993074e+02  4.04e-10 9.09e-13  1.76e-02     0s
  13   1.42510653e+03  4.24679639e+02  2.41e-10 9.09e-13  9.68e-03     0s
  14   1.25975164e+03  6.64734139e+02  1.49e-10 9.09e-13  5.76e-03     0s
  15   1.15706361e+03  7.08407100e+02  9.42e-11 9.09e-13  4.34e-03     0s
  16   1.09247858e+03  7.95390556e+02  1.55e-10 9.09e-13  2.88e-03     0s
  17   1.05216439e+03  8.66889448e+02  1.01e-10 9.09e-13  1.79e-03     0s
  18   1.01826590e+03  9.13152599e+02  8.07e-11 9.09e-13  1.02e-03     0s
  19   1.00445161e+03  9.30851423e+02  1.91e-10 9.09e-13  7.12e-04     0s
  20   9.87695011e+02  9.45889197e+02  3.15e-10 9.09e-13  4.05e-04     0s
  21   9.77196614e+02  9.56605034e+02  9.48e-11 9.09e-13  1.99e-04     0s
  22   9.68300763e+02  9.60098041e+02  4.15e-10 9.09e-13  7.94e-05     0s
  23   9.67160399e+02  9.61448433e+02  3.42e-10 4.55e-13  5.53e-05     0s
  24   9.65957281e+02  9.63248649e+02  1.92e-10 9.09e-13  2.62e-05     0s
  25   9.65349657e+02  9.64065514e+02  1.18e-09 9.09e-13  1.24e-05     1s
  26   9.64963568e+02  9.64276812e+02  5.28e-10 2.73e-12  6.65e-06     1s
  27   9.64590003e+02  9.64469233e+02  4.91e-09 9.09e-13  1.17e-06     1s
  28   9.64559369e+02  9.64535998e+02  1.34e-09 9.09e-13  2.26e-07     1s
  29   9.64550628e+02  9.64548718e+02  2.31e-09 9.09e-13  1.85e-08     1s
  30   9.64549905e+02  9.64549566e+02  1.65e-09 9.09e-13  3.28e-09     1s
  31   9.64549870e+02  9.64549865e+02  9.66e-10 1.82e-12  5.28e-11     1s

Barrier solved model in 31 iterations and 0.59 seconds (0.58 work units)
Optimal objective 9.64549870e+02

Crossover log...

    8205 DPushes remaining with DInf 0.0000000e+00                 1s
       0 DPushes remaining with DInf 0.0000000e+00                 1s

     322 PPushes remaining with PInf 0.0000000e+00                 1s
       0 PPushes remaining with PInf 0.0000000e+00                 1s

  Push phase complete: Pinf 0.0000000e+00, Dinf 2.6955383e-12      1s

Extra simplex iterations after uncrush: 2
Iteration    Objective       Primal Inf.    Dual Inf.      Time
    3318    9.6454987e+02   0.000000e+00   0.000000e+00      1s

Solved in 3318 iterations and 0.86 seconds (0.72 work units)
Optimal objective  9.645498688e+02
